5 2
6 2
7 2
8 1
9 3
10 5
11 4
12 5
13 3
14 1
15 5
16 2
17 5
18 1
5 3
6 5
7 3
8 5
9 2
10 6
11 5
12 5
13 5
14 6
15 5
16 6
17 6
18 5
5 6
6 4
7 6
8 5
9 6
10 4
11 7
12 7
13 6
14 7
15 7
16 7
17 5
18 4
5 4
6 5
7 6
8 7
9 6
10 5
11 8
12 6
13 8
14 6
15 8
16 7
17 4
18 8
5 8
6 5
7 5
8 7
9 6
10 8
11 7
12 8
13 8
14 9
15 6
16 9
17 9
18 8
5 7
6 10
7 10
8 7
9 9
10 10
11 9
12 10
13 6
14 8
15 9
16 10
17 9
18 6
5 8
6 7
7 9
8 10
9 10
10 10
11 8
12 11
13 7
14 11
15 7
16 9
17 7
18 10
5 11
6 12
7 11
8 10
9 10
10 9
11 10
12 10
13 11
14 12
15 10
16 8
17 9
18 9
5 11
6 9
7 10
8 9
9 12
10 9
11 10
12 11
13 13
14 10
15 13
16 12
17 10
18 13
5 10
6 13
7 14
8 11
9 12
10 12
11 13
12 14
13 11
14 12
15 10
16 13
17 12
18 11
5 13
6 12
7 12
8 12
9 14
10 13
11 11
12 15
13 13
14 13
15 14
16 13
17 14
18 13
5 13
6 14
7 12
8 15
9 12
10 13
11 12
12 14
13 12
14 14
15 12
16 15
17 13
18 13
5 15
6 17
7 17
8 14
9 14
10 15
11 14
12 15
13 13
14 16
15 16
16 13
17 13
18 13
5 17
6 15
7 17
8 17
9 18
10 18
11 16
12 14
13 14
14 15
15 17
16 15
17 14
18 15
5 18
6 18
7 18
8 16
